1 1 -2 0
1 1 3 0
1 1 4 0
1 -1 5 0
1 -1 6 0
1 2 7 0
1 2 -3 0
1 -2 4 0
1 2 1 0
1 -2 -8 0
1 -9 -10 0
1 -9 -11 0
1 9 -12 0
1 9 -13 0
1 9 8 0
1 9 6 0
1 14 10 0
1 14 -15 0
1 -14 16 0
1 14 -3 0
1 14 4 0
1 14 11 0
1 14 12 0
1 -14 -9 0
1 14 8 0
1 -14 6 0
1 -4 17 0
1 -4 18 0
1 4 -14 0
1 -4 2 0
1 -4 19 0
1 -4 20 0
1 -4 21 0
1 -6 22 0
1 6 -17 0
1 -6 18 0
1 6 23 0
1 6 -14 0
1 -6 -2 0
1 6 4 0
1 -6 9 0
1 -6 -1 0
1 3 24 0
1 3 -25 0
1 -3 14 0
1 -3 -2 0
1 -3 26 0
1 3 -20 0
1 3 27 0
1 -3 -28 0
1 -3 -9 0
1 3 1 0
1 3 8 0
1 8 24 0
1 -8 -25 0
1 8 -14 0
1 -8 -2 0
1 8 3 0
1 8 -20 0
1 8 28 0
1 8 9 0
1 -21 -10 0
1 21 -15 0
1 -21 -23 0
1 21 4 0
1 21 11 0
1 21 -12 0
1 -21 -28 0
1 -23 25 0
1 -23 -4 0
1 -23 -11 0
1 23 12 0
1 -23 -21 0
1 -23 -6 0
1 29 10 0
1 29 -15 0
1 29 30 0
1 -29 -4 0
1 -29 11 0
1 -29 -12 0
1 -29 31 0
1 -29 -27 0
1 -29 -32 0
1 -29 -6 0
1 18 -15 0
1 -18 -24 0
1 18 -11 0
1 -18 -12 0
1 -18 29 0
1 18 31 0
1 -18 32 0
1 -12 -33 0
1 -12 34 0
1 12 15 0
1 12 -18 0
1 12 23 0
1 12 14 0
1 12 35 0
1 -12 -36 0
1 -12 -37 0
1 12 -29 0
1 -12 -21 0
1 -15 33 0
1 -15 34 0
1 15 -18 0
1 -15 23 0
1 -15 14 0
1 15 -38 0
1 15 -35 0
1 -15 -12 0
1 -15 -29 0
1 15 21 0
1 15 -9 0
1 15 39 0
1 11 10 0
1 -11 40 0
1 -11 17 0
1 -11 -18 0
1 -11 23 0
1 11 14 0
1 11 -38 0
1 -11 -41 0
1 -11 29 0
1 -11 -21 0
1 -11 9 0
1 11 -39 0
1 -10 -40 0
1 -10 -42 0
1 10 -17 0
1 10 -18 0
1 -10 -23 0
1 -10 14 0
1 -10 -38 0
1 -10 -11 0
1 10 20 0
1 10 -29 0
1 -10 -9 0
1 -10 39 0
1 36 15 0
1 36 30 0
1 36 20 0
1 36 -31 0
1 36 32 0
1 34 -15 0
1 34 17 0
1 -34 43 0
1 34 -30 0
1 -34 31 0
1 34 -32 0
1 -35 33 0
1 35 -15 0
1 35 -43 0
1 -35 30 0
1 -35 44 0
1 35 31 0
1 -33 40 0
1 33 15 0
1 -33 43 0
1 33 -30 0
1 -33 -12 0
1 33 31 0
1 -33 -32 0
1 32 -33 0
1 32 34 0
1 32 18 0
1 -32 -30 0
1 -32 -45 0
1 32 35 0
1 32 -36 0
1 32 -29 0
1 -32 -46 0
1 30 -33 0
1 -30 -34 0
1 -30 47 0
1 30 45 0
1 30 35 0
1 30 -36 0
1 30 29 0
1 -30 32 0
1 30 46 0
1 31 33 0
1 -31 18 0
1 31 -48 0
1 -31 -38 0
1 31 -35 0
1 -31 36 0
1 -31 49 0
1 -31 -50 0
1 -31 -39 0
1 -43 -34 0
1 43 -18 0
1 43 51 0
1 -43 45 0
1 43 38 0
1 -43 35 0
1 43 36 0
1 -43 -29 0
1 43 -31 0
1 43 -46 0
1 -43 -50 0
1 -43 -39 0
1 5 -52 0
1 -5 53 0
1 -5 -54 0
1 -5 55 0
1 -7 52 0
1 7 -53 0
1 -7 -2 0
1 7 -54 0
1 -7 -55 0
1 -7 5 0
1 -13 52 0
1 13 53 0
1 13 -56 0
1 13 -57 0
1 13 -16 0
1 -13 -54 0
1 -13 -55 0
1 -13 -58 0
1 13 -59 0
1 16 -52 0
1 16 -53 0
1 -16 -56 0
1 16 57 0
1 -16 14 0
1 16 -54 0
1 16 -55 0
1 16 -58 0
1 16 -59 0
1 -53 -24 0
1 53 -60 0
1 -53 -16 0
1 53 -7 0
1 53 -55 0
1 53 28 0
1 53 5 0
1 55 53 0
1 -55 -25 0
1 55 7 0
1 55 -61 0
1 -55 28 0
1 55 -13 0
1 -55 5 0
1 -52 -62 0
1 52 -16 0
1 -52 7 0
1 52 13 0
1 -52 -5 0
1 -54 -16 0
1 54 -7 0
1 54 -63 0
1 -54 13 0
1 28 -53 0
1 28 -57 0
1 -28 -55 0
1 28 58 0
1 28 59 0
1 -28 21 0
1 -28 -8 0
1 25 -53 0
1 25 -23 0
1 -25 -57 0
1 -25 -3 0
1 -25 -58 0
1 25 59 0
1 -25 28 0
1 -25 8 0
1 27 53 0
1 27 -56 0
1 27 57 0
1 27 64 0
1 27 -65 0
1 -27 55 0
1 -27 -58 0
1 -27 -59 0
1 27 8 0
1 24 -59 0
1 24 53 0
1 24 18 0
1 -24 -57 0
1 -24 -64 0
1 -24 3 0
1 24 -55 0
1 -24 27 0
1 -24 66 0
1 24 67 0
1 -24 -8 0
1 -57 -68 0
1 57 -17 0
1 57 -24 0
1 -57 25 0
1 -57 69 0
1 57 16 0
1 -57 -70 0
1 57 -20 0
1 57 -27 0
1 -57 13 0
1 -59 68 0
1 59 -40 0
1 -59 17 0
1 59 -24 0
1 -59 -57 0
1 59 -16 0
1 59 -70 0
1 -59 44 0
1 -59 -20 0
1 -59 27 0
1 -59 -28 0
1 -59 -13 0
1 -56 -68 0
1 -56 -24 0
1 56 25 0
1 -56 -16 0
1 -56 70 0
1 -56 -58 0
1 -56 -28 0
1 58 24 0
1 58 25 0
1 58 -16 0
1 -58 -70 0
1 -58 27 0
1 -58 -71 0
1 58 -28 0
1 58 -13 0
1 20 10 0
1 -20 17 0
1 -20 57 0
1 20 -64 0
1 -20 -65 0
1 20 -3 0
1 20 4 0
1 -20 -11 0
1 -20 36 0
1 20 -59 0
1 -20 66 0
1 -20 8 0
1 20 6 0
1 -17 10 0
1 17 34 0
1 17 -57 0
1 -17 -64 0
1 -17 -65 0
1 17 3 0
1 -17 11 0
1 -17 20 0
1 17 -66 0
1 17 67 0
1 -17 8 0
1 -17 6 0
1 44 10 0
1 -44 -57 0
1 44 64 0
1 44 65 0
1 44 26 0
1 -44 -19 0
1 44 -11 0
1 -44 -35 0
1 44 -59 0
1 -44 66 0
1 44 67 0
1 44 72 0
1 -40 -22 0
1 40 -33 0
1 -40 57 0
1 -40 64 0
1 -40 -65 0
1 40 -26 0
1 40 -19 0
1 40 11 0
1 40 44 0
1 40 -59 0
1 -40 -66 0
1 -40 -67 0
1 -40 72 0
1 65 40 0
1 -65 -17 0
1 65 24 0
1 -65 -73 0
1 65 48 0
1 -65 74 0
1 -65 -44 0
1 -65 -20 0
1 65 27 0
1 -65 -67 0
1 -65 75 0
1 -65 50 0
1 65 39 0
1 -67 40 0
1 67 17 0
1 -67 -24 0
1 67 73 0
1 -67 -48 0
1 67 -38 0
1 67 -76 0
1 67 -44 0
1 67 -20 0
1 -67 -75 0
1 -67 50 0
1 -67 39 0
1 -64 -68 0
1 -64 40 0
1 -64 -17 0
1 64 24 0
1 -64 77 0
1 -64 -73 0
1 -64 -70 0
1 -64 44 0
1 64 -20 0
1 64 -27 0
1 64 -66 0
1 64 75 0
1 64 -78 0
1 -66 68 0
1 66 -17 0
1 -66 24 0
1 -66 64 0
1 -66 73 0
1 66 70 0
1 66 -44 0
1 66 -27 0
1 -66 -79 0
1 -66 75 0
1 66 78 0
1 38 -22 0
1 -38 10 0
1 -38 15 0
1 38 -43 0
1 -38 65 0
1 38 26 0
1 -38 -70 0
1 -38 11 0
1 -38 19 0
1 -38 31 0
1 38 67 0
1 -38 72 0
1 -38 39 0
1 39 -68 0
1 39 10 0
1 39 15 0
1 39 43 0
1 -39 -65 0
1 -39 26 0
1 -39 -38 0
1 39 -19 0
1 39 -11 0
1 39 -72 0
1 -48 22 0
1 48 42 0
1 -48 80 0
1 -48 43 0
1 -48 65 0
1 -48 -81 0
1 -48 26 0
1 48 -41 0
1 -48 37 0
1 -48 -31 0
1 48 50 0
1 -48 72 0
1 50 -22 0
1 -50 -42 0
1 50 80 0
1 50 -43 0
1 -50 -65 0
1 -50 -48 0
1 50 19 0
1 -50 41 0
1 50 -31 0
1 50 -72 0
1 50 67 0
1 50 78 0
1 -19 22 0
1 -19 40 0
1 -19 82 0
1 19 -83 0
1 -19 -48 0
1 19 38 0
1 -19 -4 0
1 -19 -44 0
1 19 84 0
1 19 85 0
1 19 46 0
1 -19 -39 0
1 22 -40 0
1 -22 -82 0
1 22 83 0
1 22 45 0
1 -22 -48 0
1 -22 38 0
1 -22 44 0
1 22 84 0
1 -22 85 0
1 -22 46 0
1 -26 40 0
1 -26 -82 0
1 -26 -86 0
1 -26 -38 0
1 -26 -44 0
1 26 84 0
1 -26 87 0
1 -26 -75 0
1 26 50 0
1 -26 -72 0
1 26 39 0
1 72 40 0
1 72 -82 0
1 -72 86 0
1 72 -73 0
1 72 48 0
1 72 38 0
1 -72 8 0
1 -72 84 0
1 72 87 0
1 -72 75 0
1 72 -50 0
1 72 -39 0
1 45 -42 0
1 -45 -43 0
1 45 30 0
1 -45 73 0
1 -45 -41 0
1 -45 -37 0
1 45 31 0
1 -45 46 0
1 46 -22 0
1 -46 -42 0
1 46 80 0
1 -46 -30 0
1 46 45 0
1 -46 -41 0
1 46 37 0
1 -46 -31 0
1 46 32 0
1 -46 -75 0
1 83 22 0
1 -83 -42 0
1 -83 -51 0
1 -83 -47 0
1 83 -86 0
1 -83 19 0
1 -83 -41 0
1 83 -37 0
1 83 49 0
1 -83 88 0
1 85 -22 0
1 85 -42 0
1 -85 -51 0
1 85 -47 0
1 -85 19 0
1 85 41 0
1 -85 -37 0
1 -85 -49 0
1 85 88 0
1 -85 87 0
1 -37 -89 0
1 37 45 0
1 37 -48 0
1 -37 12 0
1 -37 85 0
1 -37 46 0
1 -37 -50 0
1 -80 -15 0
1 80 90 0
1 80 -83 0
1 -80 -45 0
1 -80 48 0
1 -80 91 0
1 -80 -37 0
1 -80 92 0
1 80 46 0
1 -41 93 0
1 41 82 0
1 -41 -45 0
1 -41 -11 0
1 41 -94 0
1 41 -84 0
1 -41 -85 0
1 -41 -50 0
1 -42 10 0
1 42 93 0
1 -42 -82 0
1 42 -83 0
1 -42 -45 0
1 42 -48 0
1 -42 -41 0
1 42 94 0
1 42 50 0
1 -89 80 0
1 89 51 0
1 89 -47 0
1 89 -49 0
1 -89 37 0
1 89 92 0
1 -89 -88 0
1 92 51 0
1 92 -89 0
1 -92 47 0
1 -92 37 0
1 92 49 0
1 -92 84 0
1 -92 88 0
1 -90 -51 0
1 -90 93 0
1 90 47 0
1 90 -49 0
1 90 88 0
1 -91 80 0
1 -91 -90 0
1 -91 -51 0
1 91 -47 0
1 91 37 0
1 -91 94 0
1 -91 49 0
1 -91 88 0
1 -88 89 0
1 -88 -47 0
1 -88 83 0
1 88 92 0
1 88 -32 0
1 47 -90 0
1 -47 -30 0
1 -47 -89 0
1 -47 -83 0
1 -47 -91 0
1 47 92 0
1 -47 88 0
1 49 90 0
1 49 51 0
1 -49 -89 0
1 49 83 0
1 49 -91 0
1 -49 31 0
1 -49 92 0
1 49 85 0
1 51 -43 0
1 51 -90 0
1 -51 -89 0
1 51 83 0
1 -51 -91 0
1 -51 92 0
1 51 -85 0
1 70 -68 0
1 70 -62 0
1 -70 56 0
1 70 64 0
1 -70 38 0
1 70 63 0
1 70 61 0
1 70 58 0
1 70 59 0
1 -68 -60 0
1 -68 56 0
1 68 57 0
1 68 64 0
1 -68 70 0
1 68 -63 0
1 -68 -58 0
1 68 -59 0
1 -68 -66 0
1 68 39 0
1 -81 -62 0
1 81 -60 0
1 -81 69 0
1 -81 64 0
1 -81 48 0
1 81 -63 0
1 81 61 0
1 81 71 0
1 -81 95 0
1 81 -78 0
1 78 -62 0
1 -78 -96 0
1 -78 69 0
1 78 64 0
1 -78 81 0
1 78 -63 0
1 -78 71 0
1 -78 -95 0
1 78 66 0
1 78 50 0
1 -60 -68 0
1 60 53 0
1 60 -86 0
1 -60 -73 0
1 -60 -81 0
1 60 70 0
1 -60 -61 0
1 -60 -78 0
1 61 -68 0
1 -61 -60 0
1 -61 86 0
1 -61 -81 0
1 -61 70 0
1 -61 55 0
1 -61 -87 0
1 -61 75 0
1 61 78 0
1 62 68 0
1 62 52 0
1 62 81 0
1 -62 -70 0
1 -63 68 0
1 -63 62 0
1 63 -54 0
1 63 78 0
1 73 -60 0
1 -73 -96 0
1 73 -64 0
1 73 -45 0
1 -73 -26 0
1 -73 61 0
1 73 71 0
1 -73 95 0
1 -73 66 0
1 73 -67 0
1 73 75 0
1 73 -72 0
1 75 96 0
1 -75 69 0
1 -75 -64 0
1 75 67 0
1 -75 65 0
1 -75 73 0
1 -75 26 0
1 -75 -71 0
1 -75 95 0
1 75 66 0
1 75 72 0
1 86 -60 0
1 86 79 0
1 -86 -96 0
1 86 69 0
1 86 83 0
1 -86 74 0
1 86 26 0
1 86 61 0
1 86 71 0
1 -86 -95 0
1 86 -87 0
1 -86 76 0
1 87 -60 0
1 -87 96 0
1 87 69 0
1 -87 77 0
1 87 -74 0
1 -87 -26 0
1 -87 85 0
1 87 79 0
1 87 76 0
1 -87 72 0
1 69 -95 0
1 -69 93 0
1 -69 -57 0
1 69 -82 0
1 69 -86 0
1 -69 -73 0
1 69 -81 0
1 69 94 0
1 69 87 0
1 69 -75 0
1 -69 -78 0
1 95 -93 0
1 95 82 0
1 95 -69 0
1 95 86 0
1 95 73 0
1 95 81 0
1 95 94 0
1 -95 -59 0
1 95 84 0
1 -95 -87 0
1 -95 78 0
1 96 56 0
1 -96 73 0
1 96 71 0
1 96 87 0
1 96 75 0
1 71 96 0
1 -71 86 0
1 71 73 0
1 -71 -81 0
1 -71 58 0
1 71 87 0
1 71 78 0
1 82 42 0
1 -82 95 0
1 82 89 0
1 -82 -74 0
1 -82 -19 0
1 82 41 0
1 -82 -84 0
1 82 -79 0
1 -82 -76 0
1 82 -72 0
1 -84 22 0
1 84 42 0
1 84 69 0
1 84 -26 0
1 -84 -19 0
1 -84 -41 0
1 84 -72 0
1 -93 -42 0
1 -93 -69 0
1 -93 -77 0
1 -93 -74 0
1 93 -41 0
1 93 94 0
1 93 -95 0
1 -93 -79 0
1 -94 -93 0
1 94 69 0
1 -94 -77 0
1 94 -74 0
1 94 -41 0
1 94 -91 0
1 -94 95 0
1 -94 79 0
1 94 -76 0
1 74 93 0
1 -74 82 0
1 -74 65 0
1 74 -94 0
1 74 -84 0
1 -74 -87 0
1 74 76 0
1 -76 82 0
1 -76 -86 0
1 76 -94 0
1 -76 87 0
1 -76 67 0
1 -77 93 0
1 77 82 0
1 77 64 0
1 -77 86 0
1 -77 -94 0
1 77 84 0
1 -77 87 0
1 -79 -86 0
1 79 94 0
1 -79 -84 0
1 79 66 0
1 79 -87 0
